3 15
392 453 421 
0 26 13 2 32 87 50 67 59 15 59 76 31 1
1 46 46 55 80 71 23 87 5 59 54 60 34 1
2 44 12 44 82 53 53 6 59 63 65 36 74 1
3 56 53 40 99 17 54 78 24 12 92 98 99 2
4 89 94 58 36 26 87 72 68 40 36 66 38 2
5 13 75 21 30 22 76 46 55 59 85 34 24 2
6 5 67 54 93 10 20 11 12 42 69 74 27 1
7 23 93 64 32 96 70 30 21 49 71 45 74 1
8 66 7 19 73 79 40 21 7 42 21 50 86 1
9 66 56 27 10 95 65 60 63 29 1 94 78 2
10 71 9 63 56 48 94 18 55 83 98 38 76 3
11 7 45 71 47 44 58 59 14 7 41 28 44 2
12 63 94 23 44 84 87 23 64 63 30 69 90 3
13 22 50 62 96 3 35 13 35 5 76 25 25 1
14 95 70 67 97 40 31 93 49 16 49 17 41 2
